Minimize
  - 22 y_0 - 20 y_1 - 14 y_2 - 24 y_3 - 8 y_4 - 8 y_5 - 26 y_6 - 27 y_7
   - 9 y_8 - 24 y_9 - 23 y_10 - 25 y_11 - 18 y_12 - 14 y_13 - 29 y_14
   - 16 y_15 - 17 y_16 - 27 y_17 - 17 y_18 - 22 y_19 - 16 y_20 - 13 y_21
   - 12 y_22 - 20 y_23 - 26 y_24 - 27 y_25 - 12 y_26 - 21 y_27 - 22 y_28
   - 21 y_29 - 10 y_30 - 22 y_31 - 6 y_32 - 13 y_33 - 23 y_34 - 22 y_35
   - 25 y_36 - 9 y_37 - 27 y_38 - 22 y_39 - 27 y_40 - 7 y_41 - 25 y_42
   - 16 y_43 - 12 y_44 - 10 y_45 - 23 y_46 - 25 y_47 - 20 y_48 - 8 y_49
   - 11 y_50 - 22 y_51 - 34 y_52 - 23 y_53 - 15 y_54 - 12 y_55 - 15 y_56
   - 31 y_57 - 17 y_58 - 14 y_59 - 24 y_60 - 24 y_61 - 9 y_62 - 24 y_63
   - 24 y_64 - 11 y_66 - 27 y_67 - 22 y_68 - 18 y_69 - 11 y_70 - 18 y_71
   - 24 y_72 - 23 y_73 - 26 y_74 - 4 y_75 - 7 y_76 - 11 y_77 - 25 y_78
   - 30 y_79 - 14 y_80 - 24 y_81 - 7 y_82 - 19 y_83 - 13 y_84 - 7 y_85
   - 14 y_86 - 23 y_87 - 4 y_88 - 23 y_89 - 10 y_90 - 14 y_91 - 25 y_92
   - 17 y_93 - 26 y_94 - 12 y_95 - 17 y_96 - 25 y_97 - 25 y_98 - 19 y_99
   + 1826 Constant
Subject To
 c_0: y_87 = 1
 c_1_0: y_0 + y_1 + y_19 + y_23 + y_46 + y_47 + y_78 + y_80 + y_86 + y_87
   + y_99 >= 1
 c_1_1: y_0 + y_1 + y_23 + y_46 + y_47 + y_66 + y_78 + y_80 + y_86 + y_87
   + y_99 >= 1
 c_1_2: y_2 + y_15 + y_20 + y_30 + y_44 + y_59 + y_62 + y_73 + y_77 >= 1
 c_1_3: y_3 + y_20 + y_59 + y_64 + y_73 + y_81 + y_89 >= 1
 c_1_4: y_4 + y_5 + y_22 + y_26 + y_33 + y_37 + y_65 + y_70 + y_75 + y_76
   + y_88 >= 1
 c_1_5: y_4 + y_5 + y_22 + y_26 + y_30 + y_33 + y_44 + y_56 + y_59 + y_65
   + y_70 + y_76 >= 1
 c_1_6: y_6 + y_11 + y_16 + y_18 + y_27 + y_29 + y_61 >= 1
 c_1_7: y_7 + y_12 + y_24 + y_35 + y_53 + y_60 + y_68 + y_74 + y_92 >= 1
 c_1_8: y_8 + y_13 + y_21 + y_32 + y_37 + y_41 + y_45 + y_49 + y_50 + y_54
   + y_55 + y_58 + y_65 + y_71 + y_75 + y_82 + y_84 + y_85 + y_88 + y_90
   + y_91 + y_93 + y_95 + y_96 >= 1
 c_1_9: y_9 + y_25 + y_31 + y_36 + y_48 + y_54 + y_58 + y_83 + y_93 + y_96
   + y_97 >= 1
 c_1_10: y_10 + y_17 + y_34 + y_38 + y_40 + y_42 + y_57 + y_63 + y_72
   + y_79 + y_91 >= 1
 c_1_11: y_6 + y_11 + y_14 + y_18 + y_27 + y_29 + y_48 + y_71 + y_97 >= 1
 c_1_12: y_7 + y_12 + y_22 + y_24 + y_26 + y_28 + y_33 + y_35 + y_44 + y_51
   + y_53 + y_56 + y_60 + y_68 + y_70 + y_92 + y_98 >= 1
 c_1_13: y_8 + y_13 + y_37 + y_45 + y_49 + y_54 + y_58 + y_83 + y_84 + y_85
   + y_91 + y_93 + y_95 + y_96 >= 1
 c_1_14: y_11 + y_14 + y_25 + y_27 + y_31 + y_36 + y_48 + y_97 >= 1
 c_1_15: y_2 + y_15 + y_19 + y_20 + y_23 + y_30 + y_59 + y_62 + y_73 + y_77
   + y_80 + y_86 >= 1
 c_1_16: y_6 + y_16 + y_18 + y_21 + y_27 + y_29 + y_43 + y_50 + y_55 + y_61
   + y_66 + y_71 + y_82 + y_90 + y_99 >= 1
 c_1_17: y_10 + y_17 + y_42 + y_57 + y_72 >= 1
 c_1_18: y_6 + y_11 + y_16 + y_18 + y_21 + y_27 + y_29 + y_41 + y_43 + y_48
   + y_50 + y_55 + y_71 + y_82 + y_84 + y_90 + y_93 >= 1
 c_1_19: y_0 + y_15 + y_19 + y_23 + y_86 >= 1
 c_1_20: y_2 + y_3 + y_15 + y_20 + y_30 + y_44 + y_59 + y_64 + y_73 + y_77
   + y_81 + y_89 >= 1
 c_1_21: y_8 + y_16 + y_18 + y_21 + y_27 + y_41 + y_43 + y_45 + y_48 + y_49
   + y_50 + y_54 + y_55 + y_58 + y_71 + y_75 + y_82 + y_84 + y_85 + y_88
   + y_90 + y_93 + y_95 + y_96 >= 1
 c_1_22: y_4 + y_5 + y_12 + y_22 + y_26 + y_30 + y_33 + y_35 + y_44 + y_56
   + y_59 + y_70 + y_76 >= 1
 c_1_23: y_0 + y_1 + y_15 + y_19 + y_23 + y_47 + y_78 + y_80 + y_86 + y_87
   + y_99 >= 1
 c_1_24: y_7 + y_12 + y_24 + y_35 + y_64 + y_68 + y_74 + y_81 + y_92 >= 1
 c_1_25: y_9 + y_14 + y_25 + y_27 + y_31 + y_36 + y_48 + y_58 + y_71 + y_93
   + y_97 >= 1
 c_1_26: y_4 + y_5 + y_12 + y_22 + y_26 + y_33 + y_44 + y_51 + y_56 + y_70
   + y_76 >= 1
 c_1_27: y_6 + y_11 + y_14 + y_16 + y_18 + y_21 + y_25 + y_27 + y_29 + y_31
   + y_43 + y_48 + y_54 + y_55 + y_58 + y_71 + y_84 + y_93 + y_97 >= 1
 c_1_28: y_12 + y_28 + y_39 + y_51 + y_53 + y_60 + y_68 + y_94 + y_98 >= 1
 c_1_29: y_6 + y_11 + y_16 + y_18 + y_27 + y_29 + y_43 + y_50 + y_55 + y_61
   + y_71 >= 1
 c_1_30: y_2 + y_5 + y_15 + y_20 + y_22 + y_30 + y_32 + y_44 + y_59 + y_62
   + y_65 + y_77 + y_86 >= 1
 c_1_31: y_9 + y_14 + y_25 + y_27 + y_31 + y_36 + y_48 + y_54 + y_58 + y_71
   + y_83 + y_84 + y_93 + y_96 + y_97 >= 1
 c_1_32: y_8 + y_30 + y_32 + y_41 + y_49 + y_50 + y_55 + y_62 + y_65 + y_66
   + y_75 + y_80 + y_82 + y_85 + y_86 + y_88 + y_90 >= 1
 c_1_33: y_4 + y_5 + y_12 + y_22 + y_26 + y_33 + y_35 + y_44 + y_56 + y_59
   + y_68 + y_70 + y_76 >= 1
 c_1_34: y_10 + y_34 + y_38 + y_40 + y_42 + y_63 + y_67 + y_69 + y_72
   + y_79 >= 1
 c_1_35: y_7 + y_12 + y_22 + y_24 + y_33 + y_35 + y_51 + y_53 + y_56 + y_60
   + y_68 + y_74 + y_92 >= 1
 c_1_36: y_9 + y_14 + y_25 + y_31 + y_36 + y_48 + y_54 + y_58 + y_71 + y_93
   + y_97 >= 1
 c_1_37: y_4 + y_8 + y_13 + y_37 + y_41 + y_45 + y_49 + y_65 + y_75 + y_76
   + y_85 + y_88 + y_91 + y_95 >= 1
 c_1_38: y_10 + y_34 + y_38 + y_40 + y_42 + y_52 + y_57 + y_63 + y_67
   + y_72 + y_79 >= 1
 c_1_39: y_28 + y_39 + y_51 + y_53 + y_60 + y_69 + y_94 + y_98 >= 1
 c_1_40: y_10 + y_34 + y_38 + y_40 + y_42 + y_52 + y_57 + y_63 + y_67
   + y_72 + y_79 >= 1
 c_1_41: y_8 + y_18 + y_21 + y_32 + y_37 + y_41 + y_45 + y_49 + y_50 + y_54
   + y_55 + y_65 + y_66 + y_75 + y_82 + y_84 + y_85 + y_88 + y_90 + y_95
   >= 1
 c_1_42: y_10 + y_17 + y_34 + y_38 + y_40 + y_42 + y_57 + y_63 + y_72
   + y_79 >= 1
 c_1_43: y_16 + y_18 + y_21 + y_27 + y_29 + y_43 + y_50 + y_55 + y_61
   + y_66 + y_71 + y_82 + y_90 + y_99 >= 1
 c_1_44: y_2 + y_5 + y_12 + y_20 + y_22 + y_26 + y_30 + y_33 + y_44 + y_56
   + y_59 + y_76 + y_77 >= 1
 c_1_45: y_8 + y_13 + y_21 + y_37 + y_41 + y_45 + y_49 + y_50 + y_54 + y_55
   + y_58 + y_65 + y_71 + y_75 + y_82 + y_83 + y_84 + y_85 + y_88 + y_90
   + y_91 + y_93 + y_95 + y_96 >= 1
 c_1_46: y_0 + y_1 + y_46 + y_47 + y_61 + y_78 + y_87 + y_99 >= 1
 c_1_47: y_0 + y_1 + y_23 + y_46 + y_47 + y_78 + y_87 + y_99 >= 1
 c_1_48: y_9 + y_11 + y_14 + y_18 + y_21 + y_25 + y_27 + y_31 + y_36 + y_48
   + y_54 + y_55 + y_58 + y_71 + y_84 + y_93 + y_97 >= 1
 c_1_49: y_8 + y_13 + y_21 + y_32 + y_37 + y_41 + y_45 + y_49 + y_50 + y_54
   + y_55 + y_58 + y_65 + y_75 + y_82 + y_84 + y_85 + y_88 + y_90 + y_91
   + y_93 + y_95 + y_96 >= 1
 c_1_50: y_8 + y_16 + y_18 + y_21 + y_29 + y_32 + y_41 + y_43 + y_45 + y_49
   + y_50 + y_54 + y_55 + y_66 + y_71 + y_75 + y_82 + y_84 + y_85 + y_88
   + y_90 + y_93 >= 1
 c_1_51: y_12 + y_26 + y_28 + y_35 + y_39 + y_51 + y_53 + y_56 + y_60
   + y_68 + y_94 + y_98 >= 1
 c_1_52: y_38 + y_40 + y_52 + y_57 + y_63 + y_67 + y_79 >= 1
 c_1_53: y_7 + y_12 + y_28 + y_35 + y_39 + y_51 + y_53 + y_56 + y_60 + y_68
   + y_92 + y_98 >= 1
 c_1_54: y_8 + y_9 + y_13 + y_21 + y_27 + y_31 + y_36 + y_41 + y_45 + y_48
   + y_49 + y_50 + y_54 + y_55 + y_58 + y_71 + y_83 + y_84 + y_85 + y_90
   + y_93 + y_95 + y_96 >= 1
 c_1_55: y_8 + y_16 + y_18 + y_21 + y_27 + y_29 + y_32 + y_41 + y_43 + y_45
   + y_48 + y_49 + y_50 + y_54 + y_55 + y_58 + y_71 + y_75 + y_82 + y_84
   + y_85 + y_88 + y_90 + y_93 >= 1
 c_1_56: y_5 + y_12 + y_22 + y_26 + y_33 + y_35 + y_44 + y_51 + y_53 + y_56
   + y_59 + y_68 + y_70 + y_76 + y_92 >= 1
 c_1_57: y_10 + y_17 + y_38 + y_40 + y_42 + y_52 + y_57 + y_72 + y_79 >= 1
 c_1_58: y_8 + y_9 + y_13 + y_21 + y_25 + y_27 + y_31 + y_36 + y_45 + y_48
   + y_49 + y_54 + y_55 + y_58 + y_71 + y_83 + y_84 + y_85 + y_93 + y_95
   + y_96 + y_97 >= 1
 c_1_59: y_2 + y_3 + y_5 + y_15 + y_20 + y_22 + y_30 + y_33 + y_44 + y_56
   + y_59 + y_62 + y_77 + y_89 >= 1
 c_1_60: y_7 + y_12 + y_28 + y_35 + y_39 + y_51 + y_53 + y_60 + y_68 + y_92
   + y_98 >= 1
 c_1_61: y_6 + y_16 + y_29 + y_43 + y_46 + y_61 + y_99 >= 1
 c_1_62: y_2 + y_15 + y_30 + y_32 + y_59 + y_62 + y_65 + y_66 + y_77 + y_80
   + y_82 + y_86 >= 1
 c_1_63: y_10 + y_34 + y_38 + y_40 + y_42 + y_52 + y_63 + y_67 + y_69
   + y_72 + y_79 >= 1
 c_1_64: y_3 + y_20 + y_24 + y_64 + y_73 + y_74 + y_81 + y_89 >= 1
 c_1_65: y_4 + y_5 + y_8 + y_30 + y_32 + y_37 + y_41 + y_45 + y_49 + y_62
   + y_65 + y_75 + y_76 + y_82 + y_85 + y_88 + y_90 >= 1
 c_1_66: y_1 + y_16 + y_32 + y_41 + y_43 + y_50 + y_62 + y_66 + y_80 + y_82
   + y_86 + y_90 + y_99 >= 1
 c_1_67: y_34 + y_38 + y_40 + y_52 + y_63 + y_67 + y_69 + y_72 + y_79 >= 1
 c_1_68: y_7 + y_12 + y_24 + y_28 + y_33 + y_35 + y_51 + y_53 + y_56 + y_60
   + y_68 + y_92 + y_98 >= 1
 c_1_69: y_34 + y_39 + y_63 + y_67 + y_69 + y_94 >= 1
 c_1_70: y_4 + y_5 + y_12 + y_22 + y_26 + y_33 + y_56 + y_70 + y_76 >= 1
 c_1_71: y_8 + y_11 + y_16 + y_18 + y_21 + y_25 + y_27 + y_29 + y_31 + y_36
   + y_43 + y_45 + y_48 + y_50 + y_54 + y_55 + y_58 + y_71 + y_84 + y_90
   + y_93 + y_97 >= 1
 c_1_72: y_10 + y_17 + y_34 + y_38 + y_40 + y_42 + y_57 + y_63 + y_67
   + y_72 + y_79 >= 1
 c_1_73: y_2 + y_3 + y_15 + y_20 + y_64 + y_73 + y_89 >= 1
 c_1_74: y_7 + y_24 + y_35 + y_64 + y_74 + y_81 + y_89 + y_92 >= 1
 c_1_75: y_4 + y_8 + y_21 + y_32 + y_37 + y_41 + y_45 + y_49 + y_50 + y_55
   + y_65 + y_75 + y_76 + y_82 + y_84 + y_85 + y_88 + y_90 + y_95 >= 1
 c_1_76: y_4 + y_5 + y_22 + y_26 + y_33 + y_37 + y_44 + y_56 + y_65 + y_70
   + y_75 + y_76 + y_88 >= 1
 c_1_77: y_2 + y_15 + y_20 + y_30 + y_44 + y_59 + y_62 + y_77 + y_86 >= 1
 c_1_78: y_0 + y_1 + y_23 + y_46 + y_47 + y_78 + y_87 + y_99 >= 1
 c_1_79: y_10 + y_34 + y_38 + y_40 + y_42 + y_52 + y_57 + y_63 + y_67
   + y_72 + y_79 >= 1
 c_1_80: y_0 + y_1 + y_15 + y_23 + y_32 + y_62 + y_66 + y_80 + y_86 + y_87
   + y_99 >= 1
 c_1_81: y_3 + y_20 + y_24 + y_64 + y_74 + y_81 + y_89 >= 1
 c_1_82: y_8 + y_16 + y_18 + y_21 + y_32 + y_41 + y_43 + y_45 + y_49 + y_50
   + y_55 + y_62 + y_65 + y_66 + y_75 + y_82 + y_84 + y_85 + y_88 + y_90
   >= 1
 c_1_83: y_9 + y_13 + y_31 + y_45 + y_54 + y_58 + y_83 + y_91 + y_93 + y_95
   + y_96 >= 1
 c_1_84: y_8 + y_13 + y_18 + y_21 + y_27 + y_31 + y_41 + y_45 + y_48 + y_49
   + y_50 + y_54 + y_55 + y_58 + y_71 + y_75 + y_82 + y_84 + y_85 + y_88
   + y_90 + y_93 + y_95 + y_96 >= 1
 c_1_85: y_8 + y_13 + y_21 + y_32 + y_37 + y_41 + y_45 + y_49 + y_50 + y_54
   + y_55 + y_58 + y_65 + y_75 + y_82 + y_84 + y_85 + y_88 + y_90 + y_91
   + y_93 + y_95 + y_96 >= 1
 c_1_86: y_0 + y_1 + y_15 + y_19 + y_23 + y_30 + y_32 + y_62 + y_66 + y_77
   + y_80 + y_86 >= 1
 c_1_87: y_0 + y_1 + y_23 + y_46 + y_47 + y_78 + y_80 + y_87 + y_99 >= 1
 c_1_88: y_4 + y_8 + y_21 + y_32 + y_37 + y_41 + y_45 + y_49 + y_50 + y_55
   + y_65 + y_75 + y_76 + y_82 + y_84 + y_85 + y_88 + y_90 + y_95 >= 1
 c_1_89: y_3 + y_20 + y_59 + y_64 + y_73 + y_74 + y_81 + y_89 >= 1
 c_1_90: y_8 + y_16 + y_18 + y_21 + y_32 + y_41 + y_43 + y_45 + y_49 + y_50
   + y_54 + y_55 + y_65 + y_66 + y_71 + y_75 + y_82 + y_84 + y_85 + y_88
   + y_90 + y_93 >= 1
 c_1_91: y_8 + y_10 + y_13 + y_37 + y_45 + y_49 + y_83 + y_85 + y_91 + y_95
   + y_96 >= 1
 c_1_92: y_7 + y_12 + y_24 + y_35 + y_53 + y_56 + y_60 + y_68 + y_74 + y_92
   >= 1
 c_1_93: y_8 + y_9 + y_13 + y_18 + y_21 + y_25 + y_27 + y_31 + y_36 + y_45
   + y_48 + y_49 + y_50 + y_54 + y_55 + y_58 + y_71 + y_83 + y_84 + y_85
   + y_90 + y_93 + y_96 + y_97 >= 1
 c_1_94: y_28 + y_39 + y_51 + y_69 + y_94 + y_98 >= 1
 c_1_95: y_8 + y_13 + y_21 + y_37 + y_41 + y_45 + y_49 + y_54 + y_58 + y_75
   + y_83 + y_84 + y_85 + y_88 + y_91 + y_95 + y_96 >= 1
 c_1_96: y_8 + y_9 + y_13 + y_21 + y_31 + y_45 + y_49 + y_54 + y_58 + y_83
   + y_84 + y_85 + y_91 + y_93 + y_95 + y_96 >= 1
 c_1_97: y_9 + y_11 + y_14 + y_25 + y_27 + y_31 + y_36 + y_48 + y_58 + y_71
   + y_93 + y_97 >= 1
 c_1_98: y_12 + y_28 + y_39 + y_51 + y_53 + y_60 + y_68 + y_94 + y_98 >= 1
 c_1_99: y_0 + y_1 + y_16 + y_23 + y_43 + y_46 + y_47 + y_61 + y_66 + y_78
   + y_80 + y_87 + y_99 >= 1
Bounds
 Constant = 1
Binaries
 y_0 y_1 y_2 y_3 y_4 y_5 y_6 y_7 y_8 y_9 y_10 y_11 y_12 y_13 y_14 y_15 y_16
 y_17 y_18 y_19 y_20 y_21 y_22 y_23 y_24 y_25 y_26 y_27 y_28 y_29 y_30 y_31
 y_32 y_33 y_34 y_35 y_36 y_37 y_38 y_39 y_40 y_41 y_42 y_43 y_44 y_45 y_46
 y_47 y_48 y_49 y_50 y_51 y_52 y_53 y_54 y_55 y_56 y_57 y_58 y_59 y_60 y_61
 y_62 y_63 y_64 y_65 y_66 y_67 y_68 y_69 y_70 y_71 y_72 y_73 y_74 y_75 y_76
 y_77 y_78 y_79 y_80 y_81 y_82 y_83 y_84 y_85 y_86 y_87 y_88 y_89 y_90 y_91
 y_92 y_93 y_94 y_95 y_96 y_97 y_98 y_99
End
